networks/zoo_18_43/zoo_18_43.txt
Number of groups: 10
Flow 2: {1 4} {4 3} {3 13} 
Flow 6: {1 8} 
Flow 9: {2 4} {4 7} {7 17} 
Flow 12: {3 4} {4 5} {5 15} 
Flow 15: {4 1} 
Flow 25: {6 5} {5 4} {4 2} {2 12} 
Flow 28: {6 7} 
Flow 32: {7 4} {4 8} {8 18} 
Flow 33: {8 1} {1 11} 
Flow 40: {9 8} {8 4} {4 14} 
Time taken running everything: 0 seconds
