networks/zoo_18_43/zoo_18_43.sol
<?xml version = "1.0" encoding="UTF-8" standalone="yes"?>
<CPLEXSolution version="1.2">
 <header
   problemName="networks/zoo_18_43/zoo_18_43.lp"
   solutionName="incumbent"
   solutionIndex="-1"
   objectiveValue="10"
   solutionTypeValue="3"
   solutionTypeString="primal"
   solutionStatusValue="101"
   solutionStatusString="integer optimal solution"
   solutionMethodString="mip"
   primalFeasible="1"
   dualFeasible="1"
   MIPNodes="0"
   MIPIterations="196"
   writeLevel="3"/>
 <quality
   epInt="1.0000000000000001e-05"
   epRHS="9.9999999999999995e-07"
   maxIntInfeas="0"
   maxPrimalInfeas="0"
   maxX="3"
   maxSlack="9"/>
 <variables>
  <variable name="Y(2,3)" index="18" value="1"/>
  <variable name="Y(6,1)" index="80" value="1"/>
  <variable name="Y(9,7)" index="134" value="1"/>
  <variable name="Y(12,5)" index="180" value="1"/>
  <variable name="Y(15,4)" index="227" value="1"/>
  <variable name="Y(25,2)" index="385" value="1"/>
  <variable name="Y(28,6)" index="437" value="1"/>
  <variable name="Y(32,8)" index="503" value="1"/>
  <variable name="Y(33,1)" index="512" value="1"/>
  <variable name="Y(40,4)" index="627" value="1"/>
  <variable name="X(1,4,2)" index="689" value="1"/>
  <variable name="X(1,8,6)" index="736" value="1"/>
  <variable name="X(1,11,33)" index="806" value="1"/>
  <variable name="X(2,4,9)" index="825" value="1"/>
  <variable name="X(2,12,25)" index="884" value="1"/>
  <variable name="X(3,4,12)" index="914" value="1"/>
  <variable name="X(3,13,2)" index="947" value="1"/>
  <variable name="X(4,1,15)" index="1003" value="1"/>
  <variable name="X(4,2,25)" index="1056" value="1"/>
  <variable name="X(4,3,2)" index="1076" value="1"/>
  <variable name="X(4,5,12)" index="1129" value="1"/>
  <variable name="X(4,7,9)" index="1169" value="1"/>
  <variable name="X(4,8,32)" index="1235" value="1"/>
  <variable name="X(4,14,40)" index="1286" value="1"/>
  <variable name="X(5,4,25)" index="1314" value="1"/>
  <variable name="X(5,15,12)" index="1344" value="1"/>
  <variable name="X(6,5,25)" index="1400" value="1"/>
  <variable name="X(6,7,28)" index="1446" value="1"/>
  <variable name="X(7,4,32)" index="1493" value="1"/>
  <variable name="X(7,17,9)" index="1513" value="1"/>
  <variable name="X(8,1,33)" index="1580" value="1"/>
  <variable name="X(8,4,40)" index="1630" value="1"/>
  <variable name="X(8,18,32)" index="1665" value="1"/>
  <variable name="X(9,8,40)" index="1716" value="1"/>
  <variable name="C(2,4)" index="1724" value="1"/>
  <variable name="C(2,3)" index="1725" value="2"/>
  <variable name="C(9,4)" index="1742" value="1"/>
  <variable name="C(9,7)" index="1743" value="2"/>
  <variable name="C(12,4)" index="1750" value="1"/>
  <variable name="C(12,5)" index="1751" value="2"/>
  <variable name="C(25,5)" index="1782" value="1"/>
  <variable name="C(25,4)" index="1783" value="2"/>
  <variable name="C(25,2)" index="1784" value="3"/>
  <variable name="C(32,4)" index="1802" value="1"/>
  <variable name="C(32,8)" index="1803" value="2"/>
  <variable name="C(33,1)" index="1805" value="1"/>
  <variable name="C(40,8)" index="1825" value="1"/>
  <variable name="C(40,4)" index="1826" value="2"/>
 </variables>
</CPLEXSolution>
